\ Model CVRP2
\ LP format - for model browsing. Use MPS format to capture full model detail.
Minimize
  0 q_0 + 15.23 x_0_1 + 18 x_0_2 + 22.36 x_0_3 + 25 x_0_4 + 20.62 x_0_5
   + 11.18 x_0_6 + 21.21 x_0_7 + 26.25 x_0_8 + 32.02 x_0_9 + 25.5 x_0_10
   + 33.54 x_0_11 + 15 x_0_12 + 11.18 x_0_13 + 32.02 x_0_14 + 30.41 x_0_15
   + 32.56 x_1_2 + 14.56 x_1_3 + 32.2 x_1_4 + 32.2 x_1_5 + 24.84 x_1_6
   + 21.02 x_1_7 + 31.58 x_1_8 + 17.8 x_1_9 + 15.56 x_1_10 + 26.4 x_1_11
   + 16.64 x_1_12 + 26.4 x_1_13 + 46.87 x_1_14 + 45.35 x_1_15
   + 15.23 x_1_16 + 32.56 x_2_1 + 34.41 x_2_3 + 20.22 x_2_4 + 23.85 x_2_5
   + 16.4 x_2_6 + 36.25 x_2_7 + 36.07 x_2_8 + 47.42 x_2_9 + 43.29 x_2_10
   + 50.29 x_2_11 + 23.43 x_2_12 + 9.43 x_2_13 + 21.19 x_2_14 + 13 x_2_15
   + 18 x_2_16 + 14.56 x_3_1 + 34.41 x_3_2 + 25 x_3_4 + 42.72 x_3_5
   + 33.54 x_3_6 + 35.36 x_3_7 + 45.04 x_3_8 + 15 x_3_9 + 29.15 x_3_10
   + 40.31 x_3_11 + 11.18 x_3_12 + 32.02 x_3_13 + 53.15 x_3_14
   + 47.17 x_3_15 + 22.36 x_3_16 + 32.2 x_4_1 + 20.22 x_4_2 + 25 x_4_3
   + 41.23 x_4_5 + 31.62 x_4_6 + 46.1 x_4_7 + 50.54 x_4_8 + 40 x_4_9
   + 47.17 x_4_10 + 57.01 x_4_11 + 15.81 x_4_12 + 25.5 x_4_13
   + 41.23 x_4_14 + 29.15 x_4_15 + 25 x_4_16 + 32.2 x_5_1 + 23.85 x_5_2
   + 42.72 x_5_3 + 41.23 x_5_4 + 10 x_5_6 + 20.62 x_5_7 + 13.93 x_5_8
   + 50 x_5_9 + 33.54 x_5_10 + 35.36 x_5_11 + 35.36 x_5_12 + 15.81 x_5_13
   + 20 x_5_14 + 29.15 x_5_15 + 20.62 x_5_16 + 24.84 x_6_1 + 16.4 x_6_2
   + 33.54 x_6_3 + 31.62 x_6_4 + 10 x_6_5 + 20.62 x_6_7 + 19.85 x_6_8
   + 42.43 x_6_9 + 30.41 x_6_10 + 35.36 x_6_11 + 25.5 x_6_12 + 7.07 x_6_13
   + 22.36 x_6_14 + 25.5 x_6_15 + 11.18 x_6_16 + 21.02 x_7_1 + 36.25 x_7_2
   + 35.36 x_7_3 + 46.1 x_7_4 + 20.62 x_7_5 + 20.62 x_7_6 + 12.21 x_7_8
   + 36.4 x_7_9 + 14.14 x_7_10 + 15 x_7_11 + 33.54 x_7_12 + 26.93 x_7_13
   + 40.31 x_7_14 + 46.1 x_7_15 + 21.21 x_7_16 + 31.58 x_8_1 + 36.07 x_8_2
   + 45.04 x_8_3 + 50.54 x_8_4 + 13.93 x_8_5 + 19.85 x_8_6 + 12.21 x_8_7
   + 48.1 x_8_9 + 26.25 x_8_10 + 24.17 x_8_11 + 40.79 x_8_12 + 26.91 x_8_13
   + 33.38 x_8_14 + 42.94 x_8_15 + 26.25 x_8_16 + 17.8 x_9_1 + 47.42 x_9_2
   + 15 x_9_3 + 40 x_9_4 + 50 x_9_5 + 42.43 x_9_6 + 36.4 x_9_7 + 48.1 x_9_8
   + 25 x_9_10 + 35.36 x_9_11 + 25.5 x_9_12 + 43.01 x_9_13 + 64.03 x_9_14
   + 60.42 x_9_15 + 32.02 x_9_16 + 15.56 x_10_1 + 43.29 x_10_2
   + 29.15 x_10_3 + 47.17 x_10_4 + 33.54 x_10_5 + 30.41 x_10_6
   + 14.14 x_10_7 + 26.25 x_10_8 + 25 x_10_9 + 11.18 x_10_11
   + 32.02 x_10_12 + 35 x_10_13 + 52.2 x_10_14 + 55 x_10_15 + 25.5 x_10_16
   + 26.4 x_11_1 + 50.29 x_11_2 + 40.31 x_11_3 + 57.01 x_11_4
   + 35.36 x_11_5 + 35.36 x_11_6 + 15 x_11_7 + 24.17 x_11_8 + 35.36 x_11_9
   + 11.18 x_11_10 + 42.43 x_11_12 + 41.23 x_11_13 + 55.23 x_11_14
   + 60.83 x_11_15 + 33.54 x_11_16 + 16.64 x_12_1 + 23.43 x_12_2
   + 11.18 x_12_3 + 15.81 x_12_4 + 35.36 x_12_5 + 25.5 x_12_6
   + 33.54 x_12_7 + 40.79 x_12_8 + 25.5 x_12_9 + 32.02 x_12_10
   + 42.43 x_12_11 + 22.36 x_12_13 + 43.01 x_12_14 + 36.06 x_12_15
   + 15 x_12_16 + 26.4 x_13_1 + 9.43 x_13_2 + 32.02 x_13_3 + 25.5 x_13_4
   + 15.81 x_13_5 + 7.07 x_13_6 + 26.93 x_13_7 + 26.91 x_13_8
   + 43.01 x_13_9 + 35 x_13_10 + 41.23 x_13_11 + 22.36 x_13_12
   + 21.21 x_13_14 + 20 x_13_15 + 11.18 x_13_16 + 46.87 x_14_1
   + 21.19 x_14_2 + 53.15 x_14_3 + 41.23 x_14_4 + 20 x_14_5 + 22.36 x_14_6
   + 40.31 x_14_7 + 33.38 x_14_8 + 64.03 x_14_9 + 52.2 x_14_10
   + 55.23 x_14_11 + 43.01 x_14_12 + 21.21 x_14_13 + 15.81 x_14_15
   + 32.02 x_14_16 + 45.35 x_15_1 + 13 x_15_2 + 47.17 x_15_3 + 29.15 x_15_4
   + 29.15 x_15_5 + 25.5 x_15_6 + 46.1 x_15_7 + 42.94 x_15_8 + 60.42 x_15_9
   + 55 x_15_10 + 60.83 x_15_11 + 36.06 x_15_12 + 20 x_15_13
   + 15.81 x_15_14 + 30.41 x_15_16
Subject To
 Customer_1: x_1_2 + x_1_3 + x_1_4 + x_1_5 + x_1_6 + x_1_7 + x_1_8 + x_1_9
   + x_1_10 + x_1_11 + x_1_12 + x_1_13 + x_1_14 + x_1_15 + x_1_16 = 1
 Customer_2: x_2_1 + x_2_3 + x_2_4 + x_2_5 + x_2_6 + x_2_7 + x_2_8 + x_2_9
   + x_2_10 + x_2_11 + x_2_12 + x_2_13 + x_2_14 + x_2_15 + x_2_16 = 1
 Customer_3: x_3_1 + x_3_2 + x_3_4 + x_3_5 + x_3_6 + x_3_7 + x_3_8 + x_3_9
   + x_3_10 + x_3_11 + x_3_12 + x_3_13 + x_3_14 + x_3_15 + x_3_16 = 1
 Customer_4: x_4_1 + x_4_2 + x_4_3 + x_4_5 + x_4_6 + x_4_7 + x_4_8 + x_4_9
   + x_4_10 + x_4_11 + x_4_12 + x_4_13 + x_4_14 + x_4_15 + x_4_16 = 1
 Customer_5: x_5_1 + x_5_2 + x_5_3 + x_5_4 + x_5_6 + x_5_7 + x_5_8 + x_5_9
   + x_5_10 + x_5_11 + x_5_12 + x_5_13 + x_5_14 + x_5_15 + x_5_16 = 1
 Customer_6: x_6_1 + x_6_2 + x_6_3 + x_6_4 + x_6_5 + x_6_7 + x_6_8 + x_6_9
   + x_6_10 + x_6_11 + x_6_12 + x_6_13 + x_6_14 + x_6_15 + x_6_16 = 1
 Customer_7: x_7_1 + x_7_2 + x_7_3 + x_7_4 + x_7_5 + x_7_6 + x_7_8 + x_7_9
   + x_7_10 + x_7_11 + x_7_12 + x_7_13 + x_7_14 + x_7_15 + x_7_16 = 1
 Customer_8: x_8_1 + x_8_2 + x_8_3 + x_8_4 + x_8_5 + x_8_6 + x_8_7 + x_8_9
   + x_8_10 + x_8_11 + x_8_12 + x_8_13 + x_8_14 + x_8_15 + x_8_16 = 1
 Customer_9: x_9_1 + x_9_2 + x_9_3 + x_9_4 + x_9_5 + x_9_6 + x_9_7 + x_9_8
   + x_9_10 + x_9_11 + x_9_12 + x_9_13 + x_9_14 + x_9_15 + x_9_16 = 1
 Customer_10: x_10_1 + x_10_2 + x_10_3 + x_10_4 + x_10_5 + x_10_6 + x_10_7
   + x_10_8 + x_10_9 + x_10_11 + x_10_12 + x_10_13 + x_10_14 + x_10_15
   + x_10_16 = 1
 Customer_11: x_11_1 + x_11_2 + x_11_3 + x_11_4 + x_11_5 + x_11_6 + x_11_7
   + x_11_8 + x_11_9 + x_11_10 + x_11_12 + x_11_13 + x_11_14 + x_11_15
   + x_11_16 = 1
 Customer_12: x_12_1 + x_12_2 + x_12_3 + x_12_4 + x_12_5 + x_12_6 + x_12_7
   + x_12_8 + x_12_9 + x_12_10 + x_12_11 + x_12_13 + x_12_14 + x_12_15
   + x_12_16 = 1
 Customer_13: x_13_1 + x_13_2 + x_13_3 + x_13_4 + x_13_5 + x_13_6 + x_13_7
   + x_13_8 + x_13_9 + x_13_10 + x_13_11 + x_13_12 + x_13_14 + x_13_15
   + x_13_16 = 1
 Customer_14: x_14_1 + x_14_2 + x_14_3 + x_14_4 + x_14_5 + x_14_6 + x_14_7
   + x_14_8 + x_14_9 + x_14_10 + x_14_11 + x_14_12 + x_14_13 + x_14_15
   + x_14_16 = 1
 Customer_15: x_15_1 + x_15_2 + x_15_3 + x_15_4 + x_15_5 + x_15_6 + x_15_7
   + x_15_8 + x_15_9 + x_15_10 + x_15_11 + x_15_12 + x_15_13 + x_15_14
   + x_15_16 = 1
 DepotFlowConstr: x_0_1 + x_0_2 + x_0_3 + x_0_4 + x_0_5 + x_0_6 + x_0_7
   + x_0_8 + x_0_9 + x_0_10 + x_0_11 + x_0_12 + x_0_13 + x_0_14 + x_0_15
   - x_1_16 - x_2_16 - x_3_16 - x_4_16 - x_5_16 - x_6_16 - x_7_16 - x_8_16
   - x_9_16 - x_10_16 - x_11_16 - x_12_16 - x_13_16 - x_14_16 - x_15_16
   = 0
 PointFlowConstr_1: x_0_1 - x_1_2 - x_1_3 - x_1_4 - x_1_5 - x_1_6 - x_1_7
   - x_1_8 - x_1_9 - x_1_10 - x_1_11 - x_1_12 - x_1_13 - x_1_14 - x_1_15
   - x_1_16 + x_2_1 + x_3_1 + x_4_1 + x_5_1 + x_6_1 + x_7_1 + x_8_1 + x_9_1
   + x_10_1 + x_11_1 + x_12_1 + x_13_1 + x_14_1 + x_15_1 = 0
 PointFlowConstr_2: x_0_2 + x_1_2 - x_2_1 - x_2_3 - x_2_4 - x_2_5 - x_2_6
   - x_2_7 - x_2_8 - x_2_9 - x_2_10 - x_2_11 - x_2_12 - x_2_13 - x_2_14
   - x_2_15 - x_2_16 + x_3_2 + x_4_2 + x_5_2 + x_6_2 + x_7_2 + x_8_2
   + x_9_2 + x_10_2 + x_11_2 + x_12_2 + x_13_2 + x_14_2 + x_15_2 = 0
 PointFlowConstr_3: x_0_3 + x_1_3 + x_2_3 - x_3_1 - x_3_2 - x_3_4 - x_3_5
   - x_3_6 - x_3_7 - x_3_8 - x_3_9 - x_3_10 - x_3_11 - x_3_12 - x_3_13
   - x_3_14 - x_3_15 - x_3_16 + x_4_3 + x_5_3 + x_6_3 + x_7_3 + x_8_3
   + x_9_3 + x_10_3 + x_11_3 + x_12_3 + x_13_3 + x_14_3 + x_15_3 = 0
 PointFlowConstr_4: x_0_4 + x_1_4 + x_2_4 + x_3_4 - x_4_1 - x_4_2 - x_4_3
   - x_4_5 - x_4_6 - x_4_7 - x_4_8 - x_4_9 - x_4_10 - x_4_11 - x_4_12
   - x_4_13 - x_4_14 - x_4_15 - x_4_16 + x_5_4 + x_6_4 + x_7_4 + x_8_4
   + x_9_4 + x_10_4 + x_11_4 + x_12_4 + x_13_4 + x_14_4 + x_15_4 = 0
 PointFlowConstr_5: x_0_5 + x_1_5 + x_2_5 + x_3_5 + x_4_5 - x_5_1 - x_5_2
   - x_5_3 - x_5_4 - x_5_6 - x_5_7 - x_5_8 - x_5_9 - x_5_10 - x_5_11
   - x_5_12 - x_5_13 - x_5_14 - x_5_15 - x_5_16 + x_6_5 + x_7_5 + x_8_5
   + x_9_5 + x_10_5 + x_11_5 + x_12_5 + x_13_5 + x_14_5 + x_15_5 = 0
 PointFlowConstr_6: x_0_6 + x_1_6 + x_2_6 + x_3_6 + x_4_6 + x_5_6 - x_6_1
   - x_6_2 - x_6_3 - x_6_4 - x_6_5 - x_6_7 - x_6_8 - x_6_9 - x_6_10
   - x_6_11 - x_6_12 - x_6_13 - x_6_14 - x_6_15 - x_6_16 + x_7_6 + x_8_6
   + x_9_6 + x_10_6 + x_11_6 + x_12_6 + x_13_6 + x_14_6 + x_15_6 = 0
 PointFlowConstr_7: x_0_7 + x_1_7 + x_2_7 + x_3_7 + x_4_7 + x_5_7 + x_6_7
   - x_7_1 - x_7_2 - x_7_3 - x_7_4 - x_7_5 - x_7_6 - x_7_8 - x_7_9 - x_7_10
   - x_7_11 - x_7_12 - x_7_13 - x_7_14 - x_7_15 - x_7_16 + x_8_7 + x_9_7
   + x_10_7 + x_11_7 + x_12_7 + x_13_7 + x_14_7 + x_15_7 = 0
 PointFlowConstr_8: x_0_8 + x_1_8 + x_2_8 + x_3_8 + x_4_8 + x_5_8 + x_6_8
   + x_7_8 - x_8_1 - x_8_2 - x_8_3 - x_8_4 - x_8_5 - x_8_6 - x_8_7 - x_8_9
   - x_8_10 - x_8_11 - x_8_12 - x_8_13 - x_8_14 - x_8_15 - x_8_16 + x_9_8
   + x_10_8 + x_11_8 + x_12_8 + x_13_8 + x_14_8 + x_15_8 = 0
 PointFlowConstr_9: x_0_9 + x_1_9 + x_2_9 + x_3_9 + x_4_9 + x_5_9 + x_6_9
   + x_7_9 + x_8_9 - x_9_1 - x_9_2 - x_9_3 - x_9_4 - x_9_5 - x_9_6 - x_9_7
   - x_9_8 - x_9_10 - x_9_11 - x_9_12 - x_9_13 - x_9_14 - x_9_15 - x_9_16
   + x_10_9 + x_11_9 + x_12_9 + x_13_9 + x_14_9 + x_15_9 = 0
 PointFlowConstr_10: x_0_10 + x_1_10 + x_2_10 + x_3_10 + x_4_10 + x_5_10
   + x_6_10 + x_7_10 + x_8_10 + x_9_10 - x_10_1 - x_10_2 - x_10_3 - x_10_4
   - x_10_5 - x_10_6 - x_10_7 - x_10_8 - x_10_9 - x_10_11 - x_10_12
   - x_10_13 - x_10_14 - x_10_15 - x_10_16 + x_11_10 + x_12_10 + x_13_10
   + x_14_10 + x_15_10 = 0
 PointFlowConstr_11: x_0_11 + x_1_11 + x_2_11 + x_3_11 + x_4_11 + x_5_11
   + x_6_11 + x_7_11 + x_8_11 + x_9_11 + x_10_11 - x_11_1 - x_11_2 - x_11_3
   - x_11_4 - x_11_5 - x_11_6 - x_11_7 - x_11_8 - x_11_9 - x_11_10
   - x_11_12 - x_11_13 - x_11_14 - x_11_15 - x_11_16 + x_12_11 + x_13_11
   + x_14_11 + x_15_11 = 0
 PointFlowConstr_12: x_0_12 + x_1_12 + x_2_12 + x_3_12 + x_4_12 + x_5_12
   + x_6_12 + x_7_12 + x_8_12 + x_9_12 + x_10_12 + x_11_12 - x_12_1
   - x_12_2 - x_12_3 - x_12_4 - x_12_5 - x_12_6 - x_12_7 - x_12_8 - x_12_9
   - x_12_10 - x_12_11 - x_12_13 - x_12_14 - x_12_15 - x_12_16 + x_13_12
   + x_14_12 + x_15_12 = 0
 PointFlowConstr_13: x_0_13 + x_1_13 + x_2_13 + x_3_13 + x_4_13 + x_5_13
   + x_6_13 + x_7_13 + x_8_13 + x_9_13 + x_10_13 + x_11_13 + x_12_13
   - x_13_1 - x_13_2 - x_13_3 - x_13_4 - x_13_5 - x_13_6 - x_13_7 - x_13_8
   - x_13_9 - x_13_10 - x_13_11 - x_13_12 - x_13_14 - x_13_15 - x_13_16
   + x_14_13 + x_15_13 = 0
 PointFlowConstr_14: x_0_14 + x_1_14 + x_2_14 + x_3_14 + x_4_14 + x_5_14
   + x_6_14 + x_7_14 + x_8_14 + x_9_14 + x_10_14 + x_11_14 + x_12_14
   + x_13_14 - x_14_1 - x_14_2 - x_14_3 - x_14_4 - x_14_5 - x_14_6 - x_14_7
   - x_14_8 - x_14_9 - x_14_10 - x_14_11 - x_14_12 - x_14_13 - x_14_15
   - x_14_16 + x_15_14 = 0
 PointFlowConstr_15: x_0_15 + x_1_15 + x_2_15 + x_3_15 + x_4_15 + x_5_15
   + x_6_15 + x_7_15 + x_8_15 + x_9_15 + x_10_15 + x_11_15 + x_12_15
   + x_13_15 + x_14_15 - x_15_1 - x_15_2 - x_15_3 - x_15_4 - x_15_5
   - x_15_6 - x_15_7 - x_15_8 - x_15_9 - x_15_10 - x_15_11 - x_15_12
   - x_15_13 - x_15_14 - x_15_16 = 0
 Capacity_1_2: q_1 - q_2 + 200 x_1_2 <= 190
 Capacity_1_3: q_1 - q_3 + 200 x_1_3 <= 190
 Capacity_1_4: q_1 - q_4 + 200 x_1_4 <= 190
 Capacity_1_5: q_1 - q_5 + 200 x_1_5 <= 190
 Capacity_1_6: q_1 - q_6 + 200 x_1_6 <= 190
 Capacity_1_7: q_1 - q_7 + 200 x_1_7 <= 190
 Capacity_1_8: q_1 - q_8 + 200 x_1_8 <= 190
 Capacity_1_9: q_1 - q_9 + 200 x_1_9 <= 190
 Capacity_1_10: q_1 - q_10 + 200 x_1_10 <= 190
 Capacity_1_11: q_1 - q_11 + 200 x_1_11 <= 190
 Capacity_1_12: q_1 - q_12 + 200 x_1_12 <= 190
 Capacity_1_13: q_1 - q_13 + 200 x_1_13 <= 190
 Capacity_1_14: q_1 - q_14 + 200 x_1_14 <= 190
 Capacity_1_15: q_1 - q_15 + 200 x_1_15 <= 190
 Capacity_1_16: q_1 - q_16 + 200 x_1_16 <= 190
 Capacity_2_1: - q_1 + q_2 + 200 x_2_1 <= 193
 Capacity_2_3: q_2 - q_3 + 200 x_2_3 <= 193
 Capacity_2_4: q_2 - q_4 + 200 x_2_4 <= 193
 Capacity_2_5: q_2 - q_5 + 200 x_2_5 <= 193
 Capacity_2_6: q_2 - q_6 + 200 x_2_6 <= 193
 Capacity_2_7: q_2 - q_7 + 200 x_2_7 <= 193
 Capacity_2_8: q_2 - q_8 + 200 x_2_8 <= 193
 Capacity_2_9: q_2 - q_9 + 200 x_2_9 <= 193
 Capacity_2_10: q_2 - q_10 + 200 x_2_10 <= 193
 Capacity_2_11: q_2 - q_11 + 200 x_2_11 <= 193
 Capacity_2_12: q_2 - q_12 + 200 x_2_12 <= 193
 Capacity_2_13: q_2 - q_13 + 200 x_2_13 <= 193
 Capacity_2_14: q_2 - q_14 + 200 x_2_14 <= 193
 Capacity_2_15: q_2 - q_15 + 200 x_2_15 <= 193
 Capacity_2_16: q_2 - q_16 + 200 x_2_16 <= 193
 Capacity_3_1: - q_1 + q_3 + 200 x_3_1 <= 187
 Capacity_3_2: - q_2 + q_3 + 200 x_3_2 <= 187
 Capacity_3_4: q_3 - q_4 + 200 x_3_4 <= 187
 Capacity_3_5: q_3 - q_5 + 200 x_3_5 <= 187
 Capacity_3_6: q_3 - q_6 + 200 x_3_6 <= 187
 Capacity_3_7: q_3 - q_7 + 200 x_3_7 <= 187
 Capacity_3_8: q_3 - q_8 + 200 x_3_8 <= 187
 Capacity_3_9: q_3 - q_9 + 200 x_3_9 <= 187
 Capacity_3_10: q_3 - q_10 + 200 x_3_10 <= 187
 Capacity_3_11: q_3 - q_11 + 200 x_3_11 <= 187
 Capacity_3_12: q_3 - q_12 + 200 x_3_12 <= 187
 Capacity_3_13: q_3 - q_13 + 200 x_3_13 <= 187
 Capacity_3_14: q_3 - q_14 + 200 x_3_14 <= 187
 Capacity_3_15: q_3 - q_15 + 200 x_3_15 <= 187
 Capacity_3_16: q_3 - q_16 + 200 x_3_16 <= 187
 Capacity_4_1: - q_1 + q_4 + 200 x_4_1 <= 181
 Capacity_4_2: - q_2 + q_4 + 200 x_4_2 <= 181
 Capacity_4_3: - q_3 + q_4 + 200 x_4_3 <= 181
 Capacity_4_5: q_4 - q_5 + 200 x_4_5 <= 181
 Capacity_4_6: q_4 - q_6 + 200 x_4_6 <= 181
 Capacity_4_7: q_4 - q_7 + 200 x_4_7 <= 181
 Capacity_4_8: q_4 - q_8 + 200 x_4_8 <= 181
 Capacity_4_9: q_4 - q_9 + 200 x_4_9 <= 181
 Capacity_4_10: q_4 - q_10 + 200 x_4_10 <= 181
 Capacity_4_11: q_4 - q_11 + 200 x_4_11 <= 181
 Capacity_4_12: q_4 - q_12 + 200 x_4_12 <= 181
 Capacity_4_13: q_4 - q_13 + 200 x_4_13 <= 181
 Capacity_4_14: q_4 - q_14 + 200 x_4_14 <= 181
 Capacity_4_15: q_4 - q_15 + 200 x_4_15 <= 181
 Capacity_4_16: q_4 - q_16 + 200 x_4_16 <= 181
 Capacity_5_1: - q_1 + q_5 + 200 x_5_1 <= 174
 Capacity_5_2: - q_2 + q_5 + 200 x_5_2 <= 174
 Capacity_5_3: - q_3 + q_5 + 200 x_5_3 <= 174
 Capacity_5_4: - q_4 + q_5 + 200 x_5_4 <= 174
 Capacity_5_6: q_5 - q_6 + 200 x_5_6 <= 174
 Capacity_5_7: q_5 - q_7 + 200 x_5_7 <= 174
 Capacity_5_8: q_5 - q_8 + 200 x_5_8 <= 174
 Capacity_5_9: q_5 - q_9 + 200 x_5_9 <= 174
 Capacity_5_10: q_5 - q_10 + 200 x_5_10 <= 174
 Capacity_5_11: q_5 - q_11 + 200 x_5_11 <= 174
 Capacity_5_12: q_5 - q_12 + 200 x_5_12 <= 174
 Capacity_5_13: q_5 - q_13 + 200 x_5_13 <= 174
 Capacity_5_14: q_5 - q_14 + 200 x_5_14 <= 174
 Capacity_5_15: q_5 - q_15 + 200 x_5_15 <= 174
 Capacity_5_16: q_5 - q_16 + 200 x_5_16 <= 174
 Capacity_6_1: - q_1 + q_6 + 200 x_6_1 <= 197
 Capacity_6_2: - q_2 + q_6 + 200 x_6_2 <= 197
 Capacity_6_3: - q_3 + q_6 + 200 x_6_3 <= 197
 Capacity_6_4: - q_4 + q_6 + 200 x_6_4 <= 197
 Capacity_6_5: - q_5 + q_6 + 200 x_6_5 <= 197
 Capacity_6_7: q_6 - q_7 + 200 x_6_7 <= 197
 Capacity_6_8: q_6 - q_8 + 200 x_6_8 <= 197
 Capacity_6_9: q_6 - q_9 + 200 x_6_9 <= 197
 Capacity_6_10: q_6 - q_10 + 200 x_6_10 <= 197
 Capacity_6_11: q_6 - q_11 + 200 x_6_11 <= 197
 Capacity_6_12: q_6 - q_12 + 200 x_6_12 <= 197
 Capacity_6_13: q_6 - q_13 + 200 x_6_13 <= 197
 Capacity_6_14: q_6 - q_14 + 200 x_6_14 <= 197
 Capacity_6_15: q_6 - q_15 + 200 x_6_15 <= 197
 Capacity_6_16: q_6 - q_16 + 200 x_6_16 <= 197
 Capacity_7_1: - q_1 + q_7 + 200 x_7_1 <= 195
 Capacity_7_2: - q_2 + q_7 + 200 x_7_2 <= 195
 Capacity_7_3: - q_3 + q_7 + 200 x_7_3 <= 195
 Capacity_7_4: - q_4 + q_7 + 200 x_7_4 <= 195
 Capacity_7_5: - q_5 + q_7 + 200 x_7_5 <= 195
 Capacity_7_6: - q_6 + q_7 + 200 x_7_6 <= 195
 Capacity_7_8: q_7 - q_8 + 200 x_7_8 <= 195
 Capacity_7_9: q_7 - q_9 + 200 x_7_9 <= 195
 Capacity_7_10: q_7 - q_10 + 200 x_7_10 <= 195
 Capacity_7_11: q_7 - q_11 + 200 x_7_11 <= 195
 Capacity_7_12: q_7 - q_12 + 200 x_7_12 <= 195
 Capacity_7_13: q_7 - q_13 + 200 x_7_13 <= 195
 Capacity_7_14: q_7 - q_14 + 200 x_7_14 <= 195
 Capacity_7_15: q_7 - q_15 + 200 x_7_15 <= 195
 Capacity_7_16: q_7 - q_16 + 200 x_7_16 <= 195
 Capacity_8_1: - q_1 + q_8 + 200 x_8_1 <= 191
 Capacity_8_2: - q_2 + q_8 + 200 x_8_2 <= 191
 Capacity_8_3: - q_3 + q_8 + 200 x_8_3 <= 191
 Capacity_8_4: - q_4 + q_8 + 200 x_8_4 <= 191
 Capacity_8_5: - q_5 + q_8 + 200 x_8_5 <= 191
 Capacity_8_6: - q_6 + q_8 + 200 x_8_6 <= 191
 Capacity_8_7: - q_7 + q_8 + 200 x_8_7 <= 191
 Capacity_8_9: q_8 - q_9 + 200 x_8_9 <= 191
 Capacity_8_10: q_8 - q_10 + 200 x_8_10 <= 191
 Capacity_8_11: q_8 - q_11 + 200 x_8_11 <= 191
 Capacity_8_12: q_8 - q_12 + 200 x_8_12 <= 191
 Capacity_8_13: q_8 - q_13 + 200 x_8_13 <= 191
 Capacity_8_14: q_8 - q_14 + 200 x_8_14 <= 191
 Capacity_8_15: q_8 - q_15 + 200 x_8_15 <= 191
 Capacity_8_16: q_8 - q_16 + 200 x_8_16 <= 191
 Capacity_9_1: - q_1 + q_9 + 200 x_9_1 <= 184
 Capacity_9_2: - q_2 + q_9 + 200 x_9_2 <= 184
 Capacity_9_3: - q_3 + q_9 + 200 x_9_3 <= 184
 Capacity_9_4: - q_4 + q_9 + 200 x_9_4 <= 184
 Capacity_9_5: - q_5 + q_9 + 200 x_9_5 <= 184
 Capacity_9_6: - q_6 + q_9 + 200 x_9_6 <= 184
 Capacity_9_7: - q_7 + q_9 + 200 x_9_7 <= 184
 Capacity_9_8: - q_8 + q_9 + 200 x_9_8 <= 184
 Capacity_9_10: q_9 - q_10 + 200 x_9_10 <= 184
 Capacity_9_11: q_9 - q_11 + 200 x_9_11 <= 184
 Capacity_9_12: q_9 - q_12 + 200 x_9_12 <= 184
 Capacity_9_13: q_9 - q_13 + 200 x_9_13 <= 184
 Capacity_9_14: q_9 - q_14 + 200 x_9_14 <= 184
 Capacity_9_15: q_9 - q_15 + 200 x_9_15 <= 184
 Capacity_9_16: q_9 - q_16 + 200 x_9_16 <= 184
 Capacity_10_1: - q_1 + q_10 + 200 x_10_1 <= 184
 Capacity_10_2: - q_2 + q_10 + 200 x_10_2 <= 184
 Capacity_10_3: - q_3 + q_10 + 200 x_10_3 <= 184
 Capacity_10_4: - q_4 + q_10 + 200 x_10_4 <= 184
 Capacity_10_5: - q_5 + q_10 + 200 x_10_5 <= 184
 Capacity_10_6: - q_6 + q_10 + 200 x_10_6 <= 184
 Capacity_10_7: - q_7 + q_10 + 200 x_10_7 <= 184
 Capacity_10_8: - q_8 + q_10 + 200 x_10_8 <= 184
 Capacity_10_9: - q_9 + q_10 + 200 x_10_9 <= 184
 Capacity_10_11: q_10 - q_11 + 200 x_10_11 <= 184
 Capacity_10_12: q_10 - q_12 + 200 x_10_12 <= 184
 Capacity_10_13: q_10 - q_13 + 200 x_10_13 <= 184
 Capacity_10_14: q_10 - q_14 + 200 x_10_14 <= 184
 Capacity_10_15: q_10 - q_15 + 200 x_10_15 <= 184
 Capacity_10_16: q_10 - q_16 + 200 x_10_16 <= 184
 Capacity_11_1: - q_1 + q_11 + 200 x_11_1 <= 188
 Capacity_11_2: - q_2 + q_11 + 200 x_11_2 <= 188
 Capacity_11_3: - q_3 + q_11 + 200 x_11_3 <= 188
 Capacity_11_4: - q_4 + q_11 + 200 x_11_4 <= 188
 Capacity_11_5: - q_5 + q_11 + 200 x_11_5 <= 188
 Capacity_11_6: - q_6 + q_11 + 200 x_11_6 <= 188
 Capacity_11_7: - q_7 + q_11 + 200 x_11_7 <= 188
 Capacity_11_8: - q_8 + q_11 + 200 x_11_8 <= 188
 Capacity_11_9: - q_9 + q_11 + 200 x_11_9 <= 188
 Capacity_11_10: - q_10 + q_11 + 200 x_11_10 <= 188
 Capacity_11_12: q_11 - q_12 + 200 x_11_12 <= 188
 Capacity_11_13: q_11 - q_13 + 200 x_11_13 <= 188
 Capacity_11_14: q_11 - q_14 + 200 x_11_14 <= 188
 Capacity_11_15: q_11 - q_15 + 200 x_11_15 <= 188
 Capacity_11_16: q_11 - q_16 + 200 x_11_16 <= 188
 Capacity_12_1: - q_1 + q_12 + 200 x_12_1 <= 181
 Capacity_12_2: - q_2 + q_12 + 200 x_12_2 <= 181
 Capacity_12_3: - q_3 + q_12 + 200 x_12_3 <= 181
 Capacity_12_4: - q_4 + q_12 + 200 x_12_4 <= 181
 Capacity_12_5: - q_5 + q_12 + 200 x_12_5 <= 181
 Capacity_12_6: - q_6 + q_12 + 200 x_12_6 <= 181
 Capacity_12_7: - q_7 + q_12 + 200 x_12_7 <= 181
 Capacity_12_8: - q_8 + q_12 + 200 x_12_8 <= 181
 Capacity_12_9: - q_9 + q_12 + 200 x_12_9 <= 181
 Capacity_12_10: - q_10 + q_12 + 200 x_12_10 <= 181
 Capacity_12_11: - q_11 + q_12 + 200 x_12_11 <= 181
 Capacity_12_13: q_12 - q_13 + 200 x_12_13 <= 181
 Capacity_12_14: q_12 - q_14 + 200 x_12_14 <= 181
 Capacity_12_15: q_12 - q_15 + 200 x_12_15 <= 181
 Capacity_12_16: q_12 - q_16 + 200 x_12_16 <= 181
 Capacity_13_1: - q_1 + q_13 + 200 x_13_1 <= 177
 Capacity_13_2: - q_2 + q_13 + 200 x_13_2 <= 177
 Capacity_13_3: - q_3 + q_13 + 200 x_13_3 <= 177
 Capacity_13_4: - q_4 + q_13 + 200 x_13_4 <= 177
 Capacity_13_5: - q_5 + q_13 + 200 x_13_5 <= 177
 Capacity_13_6: - q_6 + q_13 + 200 x_13_6 <= 177
 Capacity_13_7: - q_7 + q_13 + 200 x_13_7 <= 177
 Capacity_13_8: - q_8 + q_13 + 200 x_13_8 <= 177
 Capacity_13_9: - q_9 + q_13 + 200 x_13_9 <= 177
 Capacity_13_10: - q_10 + q_13 + 200 x_13_10 <= 177
 Capacity_13_11: - q_11 + q_13 + 200 x_13_11 <= 177
 Capacity_13_12: - q_12 + q_13 + 200 x_13_12 <= 177
 Capacity_13_14: q_13 - q_14 + 200 x_13_14 <= 177
 Capacity_13_15: q_13 - q_15 + 200 x_13_15 <= 177
 Capacity_13_16: q_13 - q_16 + 200 x_13_16 <= 177
 Capacity_14_1: - q_1 + q_14 + 200 x_14_1 <= 180
 Capacity_14_2: - q_2 + q_14 + 200 x_14_2 <= 180
 Capacity_14_3: - q_3 + q_14 + 200 x_14_3 <= 180
 Capacity_14_4: - q_4 + q_14 + 200 x_14_4 <= 180
 Capacity_14_5: - q_5 + q_14 + 200 x_14_5 <= 180
 Capacity_14_6: - q_6 + q_14 + 200 x_14_6 <= 180
 Capacity_14_7: - q_7 + q_14 + 200 x_14_7 <= 180
 Capacity_14_8: - q_8 + q_14 + 200 x_14_8 <= 180
 Capacity_14_9: - q_9 + q_14 + 200 x_14_9 <= 180
 Capacity_14_10: - q_10 + q_14 + 200 x_14_10 <= 180
 Capacity_14_11: - q_11 + q_14 + 200 x_14_11 <= 180
 Capacity_14_12: - q_12 + q_14 + 200 x_14_12 <= 180
 Capacity_14_13: - q_13 + q_14 + 200 x_14_13 <= 180
 Capacity_14_15: q_14 - q_15 + 200 x_14_15 <= 180
 Capacity_14_16: q_14 - q_16 + 200 x_14_16 <= 180
 Capacity_15_1: - q_1 + q_15 + 200 x_15_1 <= 192
 Capacity_15_2: - q_2 + q_15 + 200 x_15_2 <= 192
 Capacity_15_3: - q_3 + q_15 + 200 x_15_3 <= 192
 Capacity_15_4: - q_4 + q_15 + 200 x_15_4 <= 192
 Capacity_15_5: - q_5 + q_15 + 200 x_15_5 <= 192
 Capacity_15_6: - q_6 + q_15 + 200 x_15_6 <= 192
 Capacity_15_7: - q_7 + q_15 + 200 x_15_7 <= 192
 Capacity_15_8: - q_8 + q_15 + 200 x_15_8 <= 192
 Capacity_15_9: - q_9 + q_15 + 200 x_15_9 <= 192
 Capacity_15_10: - q_10 + q_15 + 200 x_15_10 <= 192
 Capacity_15_11: - q_11 + q_15 + 200 x_15_11 <= 192
 Capacity_15_12: - q_12 + q_15 + 200 x_15_12 <= 192
 Capacity_15_13: - q_13 + q_15 + 200 x_15_13 <= 192
 Capacity_15_14: - q_14 + q_15 + 200 x_15_14 <= 192
 Capacity_15_16: q_15 - q_16 + 200 x_15_16 <= 192
Bounds
 q_0 <= 100
 q_1 <= 100
 q_2 <= 100
 q_3 <= 100
 q_4 <= 100
 q_5 <= 100
 q_6 <= 100
 q_7 <= 100
 q_8 <= 100
 q_9 <= 100
 q_10 <= 100
 q_11 <= 100
 q_12 <= 100
 q_13 <= 100
 q_14 <= 100
 q_15 <= 100
 q_16 <= 100
Binaries
 x_0_1 x_0_2 x_0_3 x_0_4 x_0_5 x_0_6 x_0_7 x_0_8 x_0_9 x_0_10 x_0_11 x_0_12
 x_0_13 x_0_14 x_0_15 x_1_2 x_1_3 x_1_4 x_1_5 x_1_6 x_1_7 x_1_8 x_1_9
 x_1_10 x_1_11 x_1_12 x_1_13 x_1_14 x_1_15 x_1_16 x_2_1 x_2_3 x_2_4 x_2_5
 x_2_6 x_2_7 x_2_8 x_2_9 x_2_10 x_2_11 x_2_12 x_2_13 x_2_14 x_2_15 x_2_16
 x_3_1 x_3_2 x_3_4 x_3_5 x_3_6 x_3_7 x_3_8 x_3_9 x_3_10 x_3_11 x_3_12
 x_3_13 x_3_14 x_3_15 x_3_16 x_4_1 x_4_2 x_4_3 x_4_5 x_4_6 x_4_7 x_4_8
 x_4_9 x_4_10 x_4_11 x_4_12 x_4_13 x_4_14 x_4_15 x_4_16 x_5_1 x_5_2 x_5_3
 x_5_4 x_5_6 x_5_7 x_5_8 x_5_9 x_5_10 x_5_11 x_5_12 x_5_13 x_5_14 x_5_15
 x_5_16 x_6_1 x_6_2 x_6_3 x_6_4 x_6_5 x_6_7 x_6_8 x_6_9 x_6_10 x_6_11
 x_6_12 x_6_13 x_6_14 x_6_15 x_6_16 x_7_1 x_7_2 x_7_3 x_7_4 x_7_5 x_7_6
 x_7_8 x_7_9 x_7_10 x_7_11 x_7_12 x_7_13 x_7_14 x_7_15 x_7_16 x_8_1 x_8_2
 x_8_3 x_8_4 x_8_5 x_8_6 x_8_7 x_8_9 x_8_10 x_8_11 x_8_12 x_8_13 x_8_14
 x_8_15 x_8_16 x_9_1 x_9_2 x_9_3 x_9_4 x_9_5 x_9_6 x_9_7 x_9_8 x_9_10
 x_9_11 x_9_12 x_9_13 x_9_14 x_9_15 x_9_16 x_10_1 x_10_2 x_10_3 x_10_4
 x_10_5 x_10_6 x_10_7 x_10_8 x_10_9 x_10_11 x_10_12 x_10_13 x_10_14 x_10_15
 x_10_16 x_11_1 x_11_2 x_11_3 x_11_4 x_11_5 x_11_6 x_11_7 x_11_8 x_11_9
 x_11_10 x_11_12 x_11_13 x_11_14 x_11_15 x_11_16 x_12_1 x_12_2 x_12_3
 x_12_4 x_12_5 x_12_6 x_12_7 x_12_8 x_12_9 x_12_10 x_12_11 x_12_13 x_12_14
 x_12_15 x_12_16 x_13_1 x_13_2 x_13_3 x_13_4 x_13_5 x_13_6 x_13_7 x_13_8
 x_13_9 x_13_10 x_13_11 x_13_12 x_13_14 x_13_15 x_13_16 x_14_1 x_14_2
 x_14_3 x_14_4 x_14_5 x_14_6 x_14_7 x_14_8 x_14_9 x_14_10 x_14_11 x_14_12
 x_14_13 x_14_15 x_14_16 x_15_1 x_15_2 x_15_3 x_15_4 x_15_5 x_15_6 x_15_7
 x_15_8 x_15_9 x_15_10 x_15_11 x_15_12 x_15_13 x_15_14 x_15_16
End
